s td 14 37 50
b 1 1 2 3 4 5 6 8 9 10 11 12 15 16 18 19 22 23 24 25 26 27 28 30 33 35 36 37 38 39 40 41 42 43 45 47 48 50
b 2 1 2 3 4 6 8 9 10 11 12 15 16 18 19 22 23 24 25 26 27 28 30 33 35 36 37 38 39 40 41 42 43 45 47 48 49 50
b 3 2 3 4 6 8 9 10 11 12 15 16 18 19 22 23 24 25 26 27 28 30 33 35 36 37 38 39 40 41 42 43 45 46 47 48 49 50
b 4 2 3 4 6 8 9 10 11 12 15 16 18 19 20 22 23 24 25 26 27 28 30 33 35 36 37 38 39 40 41 42 43 45 46 47 49 50
b 5 2 3 6 8 9 10 11 14 15 18 19 20 22 23 24 25 27 28 30 33 35 36 37 38 39 40 41 42 43 45 46 47 49 50
b 6 3 6 8 9 11 14 15 18 19 20 22 23 24 25 27 28 30 33 34 35 36 37 38 40 41 42 43 45 46 47 49 50
b 7 3 6 7 8 15 18 19 20 22 23 25 27 28 30 33 34 36 37 38 40 41 42 43 45 46 47 49
b 8 2 4 6 8 10 11 13 15 16 24 25 26 27 30 39 41 46 48 49 50
b 9 2 3 4 8 11 16 19 21 25 26 37 40 42 43 45 46 48 49
b 10 1 2 3 4 5 6 8 9 10 11 12 15 16 18 19 22 23 24 25 26 27 28 29 30 33 35 36 37 38 39 40 41 42 43 47 48 50
b 11 1 2 3 4 5 6 8 9 10 11 12 15 16 17 18 19 22 23 24 25 26 27 29 30 33 35 36 37 38 39 40 41 42 47 48 50
b 12 1 2 5 6 8 9 10 11 12 15 16 17 18 22 23 24 25 26 27 29 30 32 33 35 36 37 38 39 40 41 42 47 48 50
b 13 1 2 5 6 8 9 10 11 12 15 16 18 22 23 24 25 26 27 29 30 31 32 33 35 36 37 38 39 40 41 42
b 14 1 2 5 9 11 12 15 18 23 24 25 26 31 32 33 37 38 41 42 44
1 2
1 10
2 3
3 4
3 8
3 9
4 5
5 6
6 7
10 11
11 12
12 13
13 14
